Route #1: 1 14 9 39 10 11 16 43 26 24 1
Route #2: 1 13 3 27 35 22 5 7 29 1
Route #3: 1 41 8 17 21 19 33 40 36 1
Route #4: 1 4 12 44 45 25 1
Route #5: 1 28 30 37 20 32 42 1
Route #6: 1 15 34 6 23 31 1
Route #7: 1 18 38 2 1
cost 1312.726139197458
